7
14
15
10
9
2
12
10
8
14
6
7
1
11
15
8
4
12
9
7
5
15
5
6
9
11
5
12
10
3
15
5
11
7
8
10
10
7
1
3
11
15
4
11
13
6
8
2
10
3
12
4
14
4
4
2
6
13
14
7
7
12
6
9
11
1
13
1
4
1
14
12
5
14
12
3
15
14
5
15
11
12
4
15
5
5
2
7
3
7
13
15
8
9
4
9
2
6
10
1
